ExperimentData/Eixample/Data/Eixample200000.lp
Maximize multi-objectives

first:

0.30000000 p_1 + 0.29701493 p_2 + 0.29253731 p_3 + 0.28656716 p_4 + 0.28208955 p_5 + 0.28059701 p_6 + 0.27761194 p_7 + 0.26865672 p_8 + 0.26417910 p_9 + 0.25671642 p_10 + 0.25671642 p_11 + 0.25671642 p_12 + 0.25074627 p_13 + 0.24776119 p_14 + 0.22537313 p_15 + 0.22089552 p_16 + 0.21343284 p_17 + 0.19850746 p_18 + 0.18208955 p_19 + 0.18059701 p_20 + 0.14328358 p_21 + 0.13880597 p_22

second:

0.59400000 p_1 + 0.35100000 p_2 + 0.19800000 p_3 + 0.17100000 p_4 + 0.00900000 p_5 + 0.34200000 p_6 + 0.20700000 p_7 + 0.18000000 p_8 + 0.34200000 p_9 + 0.29700000 p_10 + 0.02700000 p_11 + 0.12600000 p_12 + 0.20700000 p_13 + 0.08100000 p_14 + 0.18000000 p_15 + 0.04500000 p_16 + 0.71100000 p_17 + 0.09000000 p_18 + 0.90000000 p_19 + 0.04500000 p_20 + 0.12600000 p_21 + 0.46800000 p_22

Subject To

52500 p_1 + 26000 p_2 + 17800 p_3 + 15000 p_4 + 15000 p_5 + 30000 p_6 + 18000 p_7 + 16000 p_8 + 112000 p_9 + 26200 p_10 + 9000 p_11 + 40500 p_12 + 18000 p_13 + 7000 p_14 + 16000 p_15 + 4000 p_16 + 63000 p_17 + 30500 p_18 + 80000 p_19 + 15000 p_20 + 40000 p_21 + 250000 p_22 <= 200000
p_1 + p_2 + p_3 + p_4 + p_5 + p_6 + p_7 + p_8 + p_9 + p_10 + p_11 + p_12 + p_13 + p_14 + p_15 + p_16 + p_17 + p_18 + p_19 + p_20 + p_21 + p_22 - y >= 0
p_1 + p_2 + p_3 + p_4 + p_5 + p_6 + p_7 + p_8 + p_9 + p_10 + p_11 + p_12 + p_13 + p_14 + p_15 + p_16 + p_17 + p_18 + p_19 + p_20 + p_21 + p_22 -23 y <= 0

Binaries

p_1
p_2
p_3
p_4
p_5
p_6
p_7
p_8
p_9
p_10
p_11
p_12
p_13
p_14
p_15
p_16
p_17
p_18
p_19
p_20
p_21
p_22
y

End